5 6 61
4 2 1 4 1 3 3 3 4 16 26 30 38 40 49 49 56 
6 3 1 3 2 2 2 4 2 4 3 4 4 4 11 11 20 28 38 40 46 46 55 55 61 
6 5 1 5 2 5 3 5 4 5 5 2 3 10 18 18 26 26 36 36 44 44 52 52 61 
3 1 1 1 2 1 3 26 37 37 46 46 55 
6 5 1 1 1 1 1 4 1 4 1 4 2 0 10 10 14 14 26 26 28 28 30 38 40 
7 3 1 2 1 2 1 2 2 3 3 2 3 2 3 0 4 4 14 14 16 26 28 28 40 40 42 42 48 
